Gurobi Optimizer version 9.1.2 build v9.1.2rc0 (linux64)
Thread count: 36 physical cores, 72 logical processors, using up to 32 threads
Optimize a model with 12 rows, 57 columns and 590 nonzeros
Model fingerprint: 0xf32eec78
Model has 47 quadratic constraints
Coefficient statistics:
  Matrix range     [2e-05, 3e+00]
  QMatrix range    [1e+00, 1e+00]
  QLMatrix range   [1e+00, 1e+00]
  Objective range  [8e-03, 7e-01]
  Bounds range     [1e+00, 1e+00]
  RHS range        [1e+00, 1e+00]
Presolve removed 9 rows and 0 columns

Continuous model is non-convex -- solving as a MIP.

Presolve removed 9 rows and 0 columns
Presolve time: 0.00s
Presolved: 189 rows, 57 columns, 443 nonzeros
Presolved model has 47 bilinear constraint(s)
Variable types: 57 continuous, 0 integer (0 binary)

Root relaxation: objective -1.743721e+00, 44 iterations, 0.00 seconds

    Nodes    |    Current Node    |     Objective Bounds      |     Work
 Expl Unexpl |  Obj  Depth IntInf | Incumbent    BestBd   Gap | It/Node Time

     0     0   -1.74372    0   38          -   -1.74372      -     -    0s
H    0     0                       0.6147548   -1.74372   384%     -    0s
     0     0   -1.64739    0    1    0.61475   -1.64739   368%     -    0s
H    0     0                      -1.6450460   -1.64739  0.14%     -    0s
     0     0     cutoff    0        -1.64505   -1.64505  0.00%     -    0s

Cutting planes:
  RLT: 25
  BQP: 3

Explored 1 nodes (76 simplex iterations) in 0.01 seconds
Thread count was 32 (of 72 available processors)

Solution count 2: -1.64505 0.614755 
No other solutions better than -1.64505

Optimal solution found (tolerance 1.00e-04)
Best objective -1.645045978473e+00, best bound -1.645045978473e+00, gap 0.0000%

User-callback calls 78, time in user-callback 0.00 sec
Gurobi Optimizer version 9.1.2 build v9.1.2rc0 (linux64)
Thread count: 36 physical cores, 72 logical processors, using up to 32 threads
Optimize a model with 60 rows, 300 columns and 15500 nonzeros
Model fingerprint: 0xdca8ba1a
Model has 250 quadratic constraints
Coefficient statistics:
  Matrix range     [1e-06, 4e+00]
  QMatrix range    [1e+00, 1e+00]
  QLMatrix range   [1e+00, 1e+00]
  Objective range  [3e-04, 1e+00]
  Bounds range     [1e+00, 1e+00]
  RHS range        [1e+00, 1e+00]
Presolve removed 11 rows and 0 columns

Continuous model is non-convex -- solving as a MIP.

Presolve removed 11 rows and 0 columns
Presolve time: 0.01s
Presolved: 1049 rows, 300 columns, 14160 nonzeros
Presolved model has 250 bilinear constraint(s)
Variable types: 300 continuous, 0 integer (0 binary)

Root relaxation: objective -2.498118e+01, 340 iterations, 0.02 seconds

    Nodes    |    Current Node    |     Objective Bounds      |     Work
 Expl Unexpl |  Obj  Depth IntInf | Incumbent    BestBd   Gap | It/Node Time

     0     0  -24.98118    0  208          -  -24.98118      -     -    0s
H    0     0                      -6.1138282  -24.98118   309%     -    0s
     0     0  -22.61440    0  161   -6.11383  -22.61440   270%     -    0s
H    0     0                     -11.8444397  -22.61440  90.9%     -    0s
     0     0  -22.34050    0  139  -11.84444  -22.34050  88.6%     -    0s
     0     0  -22.33527    0  133  -11.84444  -22.33527  88.6%     -    0s
     0     0  -22.30224    0  116  -11.84444  -22.30224  88.3%     -    0s
H    0     0                     -12.9763492  -22.30224  71.9%     -    0s
H    0     0                     -15.8521524  -22.30224  40.7%     -    0s
H    0     0                     -16.7209846  -22.30224  33.4%     -    0s
H    0     0                     -16.9113457  -22.30224  31.9%     -    0s
     0     2  -22.30224    0  116  -16.91135  -22.30224  31.9%     -    0s
* 1898  1860              70     -18.0378252  -21.34222  18.3%  49.8    1s
* 1899  1860              70     -18.0378259  -21.34222  18.3%  49.8    1s
* 2221  1886              88     -18.2061385  -21.34222  17.2%  46.3    1s
* 2222  1886              88     -18.2064482  -21.34222  17.2%  46.2    1s
* 2226  1886              89     -18.2065225  -21.34222  17.2%  46.2    1s
* 2317  1882             118     -19.7046248  -21.34222  8.31%  45.3    1s
* 2558  1849              61     -20.1096663  -21.34222  6.13%  43.8    2s
* 4849   897             106     -20.2816396  -21.24584  4.75%  50.7    3s
* 4850   897             106     -20.2816403  -21.24584  4.75%  50.7    3s
* 4970   959              96     -20.5302394  -21.24584  3.49%  50.3    3s
* 5884  1220              61     -20.5306063  -21.24584  3.48%  49.2    4s
* 5929  1220              68     -20.5356845  -21.24584  3.46%  49.1    4s
* 6078  1312              80     -20.5368695  -21.24584  3.45%  48.6    4s
* 6267  1378              81     -20.5369254  -21.24584  3.45%  48.2    4s
* 6269  1378              82     -20.5369439  -21.24584  3.45%  48.2    4s
* 6371  1498              63     -20.5371720  -21.24584  3.45%  48.0    4s
* 6372  1498              63     -20.5371725  -21.24584  3.45%  48.0    4s
* 6431  1498             108     -20.6292829  -21.24584  2.99%  47.9    4s
* 6434  1498             110     -20.6294585  -21.24584  2.99%  47.8    4s
* 6512  1498              70     -20.6579054  -21.24584  2.85%  47.7    4s
* 6530  1498              67     -20.6579213  -21.24584  2.85%  47.6    4s
* 6813  1587              71     -20.6656777  -21.24584  2.81%  46.9    4s
* 6814  1587              71     -20.6656794  -21.24584  2.81%  46.9    4s
* 7357  1844              61     -20.6714285  -21.24584  2.78%  45.6    4s
* 7360  1844              63     -20.6714388  -21.24584  2.78%  45.6    4s
* 7668  1859              69     -20.6735567  -21.24584  2.77%  44.7    4s
* 8079  1893              69     -20.6738098  -21.24584  2.77%  43.4    4s
* 8082  1893              70     -20.6740683  -21.24584  2.77%  43.4    4s
* 8192  1938             123     -20.6830217  -21.24584  2.72%  43.1    4s
* 8195  1938             125     -20.6830385  -21.24584  2.72%  43.1    4s
* 8400  1938              75     -20.7311338  -21.24584  2.48%  42.5    4s
* 8657  1799              74     -20.7350368  -21.09507  1.74%  41.8    4s
* 8658  1799              74     -20.7350370  -21.09507  1.74%  41.8    4s
* 8964  1900              74     -20.7363510  -21.00901  1.31%  41.1    4s
  9354  1904  -20.82246   27   90  -20.73635  -20.91501  0.86%  40.0    5s
* 9534  1904              66     -20.7428011  -20.81781  0.36%  39.6    5s
* 9786  1900              67     -20.7528037  -20.81781  0.31%  38.9    5s
*10126  1900              70     -20.7530917  -20.81781  0.31%  38.1    5s
*10127  1900              70     -20.7530922  -20.81781  0.31%  38.1    5s
*10378  1941              63     -20.7562294  -20.79482  0.19%  37.6    5s
*10379  1941              63     -20.7562294  -20.79482  0.19%  37.6    5s
*10420  1941              77     -20.7621361  -20.79482  0.16%  37.4    5s
*10421  1941              77     -20.7621367  -20.79482  0.16%  37.4    5s
*10806  2061              91     -20.7689903  -20.79482  0.12%  36.5    5s
*11182  2061              62     -20.7703591  -20.79482  0.12%  35.5    5s
*11572  1906              65     -20.7704404  -20.79090  0.10%  34.6    5s
*11574  1906              66     -20.7704465  -20.79090  0.10%  34.6    5s
*11596  1906              64     -20.7713502  -20.79090  0.09%  34.5    5s
*11597  1906              64     -20.7714316  -20.79090  0.09%  34.5    5s
*11993  2030              65     -20.7717657  -20.79090  0.09%  33.7    5s
*11994  2030              65     -20.7717816  -20.79090  0.09%  33.6    5s
*11999  2030              67     -20.7718177  -20.79090  0.09%  33.6    5s
*12046  2030              64     -20.7722237  -20.79090  0.09%  33.5    5s
*12049  2030              66     -20.7722659  -20.79090  0.09%  33.5    5s
*12052  2030              66     -20.7722676  -20.79090  0.09%  33.5    5s
*12054  2030              67     -20.7722680  -20.79090  0.09%  33.5    5s
*12112  2030              73     -20.7724743  -20.79090  0.09%  33.4    5s
*12114  2030              74     -20.7725230  -20.79090  0.09%  33.4    5s
*12115  2030              74     -20.7725232  -20.79090  0.09%  33.4    5s
*12135  2030              67     -20.7727175  -20.79090  0.09%  33.3    5s
*12229  2030              62     -20.7781777  -20.79090  0.06%  33.1    5s
*12777  1889              63     -20.7800048  -20.78147  0.01%  31.9    5s
*12830  1889              63     -20.7807561  -20.78147  0.00%  31.8    5s

Explored 13528 nodes (412085 simplex iterations) in 5.64 seconds
Thread count was 32 (of 72 available processors)

Solution count 10: -20.7808 -20.78 -20.7782 ... -20.7718

Optimal solution found (tolerance 1.00e-04)
Best objective -2.078075610970e+01, best bound -2.078146781755e+01, gap 0.0034%

User-callback calls 27888, time in user-callback 0.01 sec



objective value: -20.780756109703724
objective bound: -20.781467817549668
x_opt: [0.0, 1.0, 1.0, 0.0, 0.0, 0.0, 1.0, 1.0, 0.0, 0.0, 0.2611641666336412, 0.39850526154577015, 0.0, 1.0, 1.0, 1.0, 0.00045330598540375825, 1.0, 0.0, 0.0, 0.0, 1.0, 1.0, 1.0, 0.0, 1.0, 1.0, 1.0, 0.0, 0.8185266685618888, 1.0, 0.7249258000605971, 0.0, 0.19957509081515623, 1.0, 1.0, 0.9996952624494112, 1.0, 0.49933769759876984, 0.9999044992990562, 0.8901810672889144, 0.11728654057038265, 1.0, 0.0, 0.0, 0.7119367401560099, 0.14864261890963185, 0.0, 1.150149382022507e-7, 1.0]
GUROBI solution time: 5.643002986907959

